(declare-const X String)
; /^(\u{0}\u{0}\u{0}\u{0}|.{4}(\u{0}\u{0}\u{0}\u{0}|.{12}))/s
(assert (str.in_re X (re.++ (str.to_re "/") (re.union (str.to_re "\u{0}\u{0}\u{0}\u{0}") (re.++ ((_ re.loop 4 4) re.allchar) (re.union (str.to_re "\u{0}\u{0}\u{0}\u{0}") ((_ re.loop 12 12) re.allchar)))) (str.to_re "/s\u{a}"))))
; /\u{2f}blackmuscats?\u{3f}\d/Ui
(assert (not (str.in_re X (re.++ (str.to_re "//blackmuscat") (re.opt (str.to_re "s")) (str.to_re "?") (re.range "0" "9") (str.to_re "/Ui\u{a}")))))
; /filename=[^\n]*\u{2e}mka/i
(assert (not (str.in_re X (re.++ (str.to_re "/filename=") (re.* (re.comp (str.to_re "\u{a}"))) (str.to_re ".mka/i\u{a}")))))
(check-sat)
